Problem:    
Rows:       260
Columns:    89 (72 integer, 72 binary)
Non-zeros:  812
Status:     INTEGER OPTIMAL
Objective:  value = 3.232127 (MINimum)

   No.   Row name        Activity     Lower bound   Upper bound
------ ------------    ------------- ------------- -------------
     1 r.5                   1003.23             0               
     2 r.6                  -998.881      -999.284               
     3 r.7                   3.23213             0               
     4 r.8                   1.11884       -998.88               
     5 r.9                   3.23213             0               
     6 r.10                  1.11884      -999.303               
     7 r.11                  1003.23             0               
     8 r.12                 -998.881      -998.921               
     9 r.13                  1003.23             0               
    10 r.14                 -999.597      -999.922               
    11 r.15                  3.23213             0               
    12 r.16                  1.11884      -999.824               
    13 r.17                  1003.23             0               
    14 r.18                 -999.674      -999.882               
    15 r.19                  3.23213             0               
    16 r.20                  1.11884      -999.743               
    17 r.21                  3.23213             0               
    18 r.22                  -999.65       -999.69               
    19 r.23                  1003.23             0               
    20 r.24                 -997.629      -999.553               
    21 r.25                  1003.23             0               
    22 r.26                  -999.96       -999.96               
    23 r.27                  3.23213             0               
    24 r.28                   0.0396      -999.909               
    25 r.29                  1003.23             0               
    26 r.30                 -996.768      -997.887               
    27 r.31                  3.23213             0               
    28 r.32                  3.23213      -993.384               
    29 r.33                  3.23213             0               
    30 r.34                  3.23213      -999.451               
    31 r.35                  1003.23             0               
    32 r.36                 -996.768      -999.139               
    33 r.37                        1             1             = 
    34 r.38                        1             1             = 
    35 r.39                        1             1             = 
    36 r.40                        1             1             = 
    37 r.41                        1             1             = 
    38 r.42                        1             1             = 
    39 r.43                        1             1             = 
    40 r.44                        1             1             = 
    41 r.45                     1001             2               
    42 r.46                    -1001         -1001               
    43 r.47                     2000      -999.303               
    44 r.48                     1001             2               
    45 r.49                    -1001         -1001               
    46 r.50                     2000      -998.921               
    47 r.51                        2             2               
    48 r.52                       -2         -1001               
    49 r.53                -0.715511      -999.922               
    50 r.54                     1000             2               
    51 r.55                    -1000         -1001               
    52 r.56                     2000      -999.824               
    53 r.57                        2             2               
    54 r.58                       -2         -1001               
    55 r.59                -0.793111      -999.882               
    56 r.60                     1000             2               
    57 r.61                    -1000         -1001               
    58 r.62                     2000      -999.743               
    59 r.63                     1001             2               
    60 r.64                    -1001         -1001               
    61 r.65                  999.231       -999.69               
    62 r.66                     1001             2               
    63 r.67                    -1001         -1001               
    64 r.68                  2001.25      -999.553               
    65 r.69                 -998.921      -999.284               
    66 r.70                  1.07924       -998.88               
    67 r.71                 -998.921      -999.284               
    68 r.72                  1.07924       -998.88               
    69 r.73                 -997.887      -997.887               
    70 r.74                  2.11329      -993.384               
    71 r.75                 -997.887      -997.887               
    72 r.76                  2.11329      -993.384               
    73 r.77                  2.11329      -999.451               
    74 r.78                 -997.887      -999.139               
    75 r.79                  2.11329      -999.451               
    76 r.80                 -997.887      -999.139               
    77 r.81                     1001             2               
    78 r.82                    -1001         -1001               
    79 r.83                     2000      0.715511               
    80 r.84                     1001             2               
    81 r.85                    -1001         -1001               
    82 r.86                     2000       1.12014               
    83 r.87                     1001             2               
    84 r.88                    -1001         -1001               
    85 r.89                  1999.28      -999.922               
    86 r.90                     1001             2               
    87 r.91                    -1001         -1001               
    88 r.92                     2000      -999.824               
    89 r.93                     1001             2               
    90 r.94                    -1001         -1001               
    91 r.95                  1999.21      -999.882               
    92 r.96                     1001             2               
    93 r.97                    -1001         -1001               
    94 r.98                     2000      -999.743               
    95 r.99                     1000             2               
    96 r.100                   -1000         -1001               
    97 r.101                 999.231       -999.69               
    98 r.102                       2             2               
    99 r.103                      -2         -1001               
   100 r.104                -998.748      -999.553               
   101 r.105                 1.07924      -999.303               
   102 r.106                -998.921      -998.921               
   103 r.107                 1.07924      -999.303               
   104 r.108                -998.921      -998.921               
   105 r.109                -997.887      -997.887               
   106 r.110                 2.11329      -993.384               
   107 r.111                -997.887      -997.887               
   108 r.112                 2.11329      -993.384               
   109 r.113                    1000             2               
   110 r.114                   -1000         -1001               
   111 r.115                 2002.11      -999.451               
   112 r.116                       2             2               
   113 r.117                      -2         -1001               
   114 r.118                -997.887      -999.139               
   115 r.119                       2             2               
   116 r.120                      -2         -1001               
   117 r.121                0.715511      0.715511               
   118 r.122                    1000             2               
   119 r.123                   -1000         -1001               
   120 r.124                    2000       1.12014               
   121 r.125                    1001             2               
   122 r.126                   -1001         -1001               
   123 r.127                 2000.72      0.697111               
   124 r.128                    1001             2               
   125 r.129                   -1001         -1001               
   126 r.130                    2000       1.07924               
   127 r.131                       2             2               
   128 r.132                      -2         -1001               
   129 r.133                 -0.0776      -999.882               
   130 r.134                    1000             2               
   131 r.135                   -1000         -1001               
   132 r.136                    2000      -999.743               
   133 r.137                    1001             2               
   134 r.138                   -1001         -1001               
   135 r.139                 999.946       -999.69               
   136 r.140                    1001             2               
   137 r.141                   -1001         -1001               
   138 r.142                 2001.25      -999.553               
   139 r.143                -999.636      -999.922               
   140 r.144                 1.07924      -999.824               
   141 r.145                -999.636      -999.922               
   142 r.146                 1.07924      -999.824               
   143 r.147                -997.171      -997.887               
   144 r.148                  2.8288      -993.384               
   145 r.149                -997.887      -997.887               
   146 r.150                 2.11329      -993.384               
   147 r.151                  2.8288      -999.451               
   148 r.152                -997.171      -999.139               
   149 r.153                 2.11329      -999.451               
   150 r.154                -997.887      -999.139               
   151 r.155                       2             2               
   152 r.156                      -2         -1001               
   153 r.157                0.793111      0.715511               
   154 r.158                    1000             2               
   155 r.159                   -1000         -1001               
   156 r.160                    2000       1.12014               
   157 r.161                    1001             2               
   158 r.162                   -1001         -1001               
   159 r.163                 2000.79      0.697111               
   160 r.164                    1001             2               
   161 r.165                   -1001         -1001               
   162 r.166                    2000       1.07924               
   163 r.167                       2             2               
   164 r.168                      -2         -1001               
   165 r.169                  0.0776        0.0776               
   166 r.170                    1000             2               
   167 r.171                   -1000         -1001               
   168 r.172                    2000      0.175797               
   169 r.173                    1001             2               
   170 r.174                   -1001         -1001               
   171 r.175                 1000.02       -999.69               
   172 r.176                    1001             2               
   173 r.177                   -1001         -1001               
   174 r.178                 2001.25      -999.553               
   175 r.179                -999.714      -999.882               
   176 r.180                 1.07924      -999.743               
   177 r.181                -999.714      -999.882               
   178 r.182                 1.07924      -999.743               
   179 r.183                -997.094      -997.887               
   180 r.184                  2.9064      -993.384               
   181 r.185                -997.887      -997.887               
   182 r.186                 2.11329      -993.384               
   183 r.187                    1001             2               
   184 r.188                   -1001         -1001               
   185 r.189                 2002.91      -999.451               
   186 r.190                    1001             2               
   187 r.191                   -1001         -1001               
   188 r.192                 2002.11      -999.139               
   189 r.193                    1001             2               
   190 r.194                   -1001         -1001               
   191 r.195                 3000.77      0.715511               
   192 r.196                    1001             2               
   193 r.197                   -1001         -1001               
   194 r.198                 1998.75       1.12014               
   195 r.199                    1000             2               
   196 r.200                   -1000         -1001               
   197 r.201                 3000.77      0.697111               
   198 r.202                       2             2               
   199 r.203                      -2         -1001               
   200 r.204                 998.748       1.07924               
   201 r.205                    1001             2               
   202 r.206                   -1001         -1001               
   203 r.207                 3000.05        0.0776               
   204 r.208                    1001             2               
   205 r.209                   -1001         -1001               
   206 r.210                 1998.75      0.175797               
   207 r.211                    1001             2               
   208 r.212                   -1001         -1001               
   209 r.213                 2999.98      0.118467               
   210 r.214                    1001             2               
   211 r.215                   -1001         -1001               
   212 r.216                 1998.75      0.257234               
   213 r.217                 -999.69       -999.69               
   214 r.218                -997.668      -999.553               
   215 r.219                 -999.69       -999.69               
   216 r.220                -997.668      -999.553               
   217 r.221                    1001             2               
   218 r.222                   -1001         -1001               
   219 r.223                 3002.88      -997.887               
   220 r.224                    1001             2               
   221 r.225                   -1001         -1001               
   222 r.226                 2000.86      -993.384               
   223 r.227                 1002.88      -999.451               
   224 r.228                 2.88262      -999.139               
   225 r.229                0.860978      -999.451               
   226 r.230                -999.139      -999.139               
   227 r.231                -996.807      -997.887               
   228 r.232                 3.19253      -993.384               
   229 r.233                -996.807      -997.887               
   230 r.234                 3.19253      -993.384               
   231 r.235                    1001             2               
   232 r.236                   -1001         -1001               
   233 r.237                 997.117      0.309911               
   234 r.238                    1001             2               
   235 r.239                   -1001         -1001               
   236 r.240                 1999.14      0.447486               
   237 r.241                    1001             2               
   238 r.242                   -1001         -1001               
   239 r.243                    2000      -999.451               
   240 r.244                    1001             2               
   241 r.245                   -1001         -1001               
   242 r.246                    2000      -999.139               
   243 r.247                    1000             2               
   244 r.248                   -1000         -1001               
   245 r.249                 1997.89      0.697111               
   246 r.250                       2             2               
   247 r.251                      -2         -1001               
   248 r.252                 997.887       1.07924               
   249 r.253                    1001             2               
   250 r.254                   -1001         -1001               
   251 r.255                 1997.09      0.118467               
   252 r.256                    1001             2               
   253 r.257                   -1001         -1001               
   254 r.258                 1997.89      0.257234               
   255 r.259                    1001             2               
   256 r.260                   -1001         -1001               
   257 r.261                    2000       2.11329               
   258 r.262                    1001             2               
   259 r.263                   -1001         -1001               
   260 r.264                    2000       6.61632               

   No. Column name       Activity     Lower bound   Upper bound
------ ------------    ------------- ------------- -------------
     1 tt                    3.23213             0               
     2 s_1_1        *              1             0             1 
     3 t_1_1                 2.11329             0               
     4 s_1_8        *              0             0             1 
     5 s_1_7        *              1             0             1 
     6 s_2_1        *              0             0             1 
     7 t_2_1                 2.11329             0               
     8 s_2_8        *              1             0             1 
     9 s_2_7        *              0             0             1 
    10 s_1_2        *              0             0             1 
    11 t_1_2                 2.11329             0               
    12 s_2_2        *              1             0             1 
    13 t_2_2                 2.11329             0               
    14 s_1_3        *              1             0             1 
    15 t_1_3                  2.8288             0               
    16 s_2_3        *              0             0             1 
    17 t_2_3                 2.11329             0               
    18 s_1_4        *              1             0             1 
    19 t_1_4                  2.9064             0               
    20 s_2_4        *              0             0             1 
    21 t_2_4                 2.11329             0               
    22 s_1_5        *              0             0             1 
    23 t_1_5                 1002.88             0               
    24 s_2_5        *              1             0             1 
    25 t_2_5                0.860978             0               
    26 s_1_6        *              1             0             1 
    27 t_1_6                 3.19253             0               
    28 s_2_6        *              0             0             1 
    29 t_2_6                 3.19253             0               
    30 t_1_7                       0             0               
    31 t_2_7                       0             0               
    32 t_1_8                       0             0               
    33 t_2_8                       0             0               
    34 r_1_1_2      *              1             0             1 
    35 u_1_1_2      *              0             0             1 
    36 r_2_1_2      *              1             0             1 
    37 u_2_1_2      *              0             0             1 
    38 r_1_1_3      *              0             0             1 
    39 u_1_1_3      *              0             0             1 
    40 r_2_1_3      *              1             0             1 
    41 u_2_1_3      *              0             0             1 
    42 r_1_1_4      *              0             0             1 
    43 u_1_1_4      *              0             0             1 
    44 r_2_1_4      *              1             0             1 
    45 u_2_1_4      *              0             0             1 
    46 r_1_1_5      *              1             0             1 
    47 u_1_1_5      *              0             0             1 
    48 r_2_1_5      *              1             0             1 
    49 u_2_1_5      *              0             0             1 
    50 r_1_2_3      *              1             0             1 
    51 u_1_2_3      *              0             0             1 
    52 r_2_2_3      *              1             0             1 
    53 u_2_2_3      *              0             0             1 
    54 r_1_2_4      *              1             0             1 
    55 u_1_2_4      *              0             0             1 
    56 r_2_2_4      *              1             0             1 
    57 u_2_2_4      *              0             0             1 
    58 r_1_2_5      *              1             0             1 
    59 u_1_2_5      *              0             0             1 
    60 r_2_2_5      *              0             0             1 
    61 u_2_2_5      *              1             0             1 
    62 r_1_2_8      *              1             0             1 
    63 u_1_2_8      *              0             0             1 
    64 r_2_2_8      *              0             0             1 
    65 u_2_2_8      *              1             0             1 
    66 r_1_3_4      *              0             0             1 
    67 u_1_3_4      *              0             0             1 
    68 r_2_3_4      *              1             0             1 
    69 u_2_3_4      *              0             0             1 
    70 r_1_3_5      *              1             0             1 
    71 u_1_3_5      *              0             0             1 
    72 r_2_3_5      *              1             0             1 
    73 u_2_3_5      *              0             0             1 
    74 r_1_4_5      *              1             0             1 
    75 u_1_4_5      *              0             0             1 
    76 r_2_4_5      *              1             0             1 
    77 u_2_4_5      *              0             0             1 
    78 r_1_4_8      *              1             0             1 
    79 u_1_4_8      *              0             0             1 
    80 r_2_4_8      *              1             0             1 
    81 u_2_4_8      *              0             0             1 
    82 r_1_5_7      *              1             0             1 
    83 u_1_5_7      *              0             0             1 
    84 r_2_5_7      *              1             0             1 
    85 u_2_5_7      *              0             0             1 
    86 r_1_7_8      *              1             0             1 
    87 u_1_7_8      *              0             0             1 
    88 r_2_7_8      *              1             0             1 
    89 u_2_7_8      *              0             0             1 

Integer feasibility conditions:

KKT.PE: max.abs.err = 4.55e-13 on row 203
        max.rel.err = 7.57e-17 on row 203
        High quality

KKT.PB: max.abs.err = 1.11e-16 on row 165
        max.rel.err = 1.03e-16 on row 165
        High quality

End of output
